30	100	100	100
21	6	9
7	29	1
21	25	6
34	5	31
25	14	7
32	26	15
26	8	11
5	15	17
6	1	21
16	29	32
11	31	7
13	22	31
6	26	26
2	29	21
31	15	25
28	21	28
20	23	28
8	9	32
6	6	13
15	23	30
24	33	20
5	8	13
24	15	26
7	27	26
7	11	17
32	5	21
16	23	17
5	24	33
23	2	21
32	8	29
